c pcminimize - minimizing a CNF with respect to propagation completeness by iterative removing of absorbed clauses.
c Petr Kucera, 2016-2021
c Version 2.7, revision 59, git hash 4910a71, date 2024-07-16 20:17:42 +0200
p cnf 831 2551
-222 -252 0
251 -252 0
252 -253 0
192 -253 0
254 -255 0
59 -255 0
-222 -256 0
-59 -256 0
255 256 -257 0
257 -258 0
-192 -258 0
253 258 -259 0
259 -261 0
260 -261 0
261 -262 0
110 -262 0
-222 -263 0
192 -263 0
254 -264 0
-192 -264 0
263 264 -265 0
59 -266 0
242 -266 0
265 -267 0
266 -267 0
267 -268 0
-110 -268 0
262 268 -269 0
-64 -270 0
-77 -270 0
195 -270 0
271 -273 0
272 -273 0
270 -274 0
273 -274 0
274 -275 0
176 -275 0
76 -276 0
-77 -276 0
-165 -276 0
-195 -276 0
276 -277 0
64 -277 0
271 -280 0
272 -280 0
278 -280 0
279 -280 0
280 -281 0
-64 -281 0
277 281 -282 0
282 -283 0
-176 -283 0
275 283 -284 0
285 -286 0
226 -286 0
-226 -287 0
286 287 -288 0
57 -289 0
145 -289 0
290 -291 0
-145 -291 0
289 291 -292 0
51 -293 0
3 -293 0
294 -295 0
-3 -295 0
293 295 -296 0
-1 -297 0
4 -297 0
6 -297 0
7 -297 0
-8 -297 0
10 -297 0
-12 -297 0
13 -297 0
15 -297 0
19 -297 0
22 -297 0
-23 -297 0
-24 -297 0
25 -297 0
28 -297 0
-29 -297 0
30 -297 0
31 -297 0
-33 -297 0
-35 -297 0
-36 -297 0
-37 -297 0
-38 -297 0
40 -297 0
44 -297 0
45 -297 0
46 -297 0
-50 -297 0
-52 -297 0
53 -297 0
55 -297 0
56 -297 0
58 -297 0
62 -297 0
65 -297 0
-66 -297 0
67 -297 0
-68 -297 0
71 -297 0
74 -297 0
78 -297 0
-79 -297 0
-81 -297 0
83 -297 0
-84 -297 0
85 -297 0
86 -297 0
-89 -297 0
93 -297 0
94 -297 0
95 -297 0
-97 -297 0
101 -297 0
103 -297 0
104 -297 0
-105 -297 0
-106 -297 0
111 -297 0
-114 -297 0
-115 -297 0
117 -297 0
-120 -297 0
123 -297 0
125 -297 0
126 -297 0
-127 -297 0
-129 -297 0
-130 -297 0
-133 -297 0
-135 -297 0
136 -297 0
-139 -297 0
141 -297 0
142 -297 0
143 -297 0
-149 -297 0
-150 -297 0
151 -297 0
153 -297 0
157 -297 0
158 -297 0
160 -297 0
-162 -297 0
-163 -297 0
-164 -297 0
167 -297 0
-168 -297 0
-169 -297 0
170 -297 0
171 -297 0
-174 -297 0
-179 -297 0
180 -297 0
-184 -297 0
-186 -297 0
187 -297 0
-190 -297 0
191 -297 0
197 -297 0
199 -297 0
200 -297 0
-201 -297 0
-203 -297 0
-204 -297 0
-206 -297 0
-207 -297 0
-208 -297 0
-209 -297 0
210 -297 0
-215 -297 0
-216 -297 0
217 -297 0
-221 -297 0
223 -297 0
-232 -297 0
233 -297 0
235 -297 0
237 -297 0
-239 -297 0
241 -297 0
245 -297 0
247 -297 0
249 -297 0
250 -297 0
298 -301 0
299 -301 0
300 -301 0
269 -302 0
284 -302 0
288 -302 0
292 -302 0
296 -302 0
297 -302 0
301 -302 0
302 -303 0
303 -304 0
304 -305 0
109 -305 0
305 -306 0
49 -306 0
306 -307 0
-9 -308 0
-17 -308 0
41 -308 0
42 -308 0
72 -308 0
96 -308 0
-99 -308 0
-102 -308 0
-108 -308 0
-112 -308 0
137 -308 0
-211 -308 0
218 -308 0
307 -309 0
308 -309 0
309 -310 0
90 -310 0
310 -311 0
98 -311 0
32 -312 0
311 -313 0
312 -313 0
313 -314 0
314 -315 0
315 -316 0
11 -316 0
316 -317 0
147 -318 0
317 -319 0
318 -319 0
319 -320 0
230 -321 0
323 -324 0
181 -328 0
216 -329 0
-242 -329 0
330 -332 0
331 -332 0
329 -333 0
332 -333 0
333 -334 0
74 -334 0
330 -336 0
335 -336 0
336 -337 0
184 -337 0
330 -338 0
216 -338 0
78 -339 0
-216 -339 0
338 339 -340 0
340 -341 0
-184 -341 0
337 341 -342 0
342 -343 0
260 -343 0
343 -344 0
-74 -344 0
334 344 -345 0
346 -347 0
47 -347 0
179 -348 0
-47 -348 0
347 348 -349 0
350 -351 0
186 -351 0
-186 -352 0
351 352 -353 0
-3 -354 0
6 -354 0
7 -354 0
10 -354 0
17 -354 0
-19 -354 0
24 -354 0
28 -354 0
30 -354 0
31 -354 0
-33 -354 0
-35 -354 0
36 -354 0
37 -354 0
38 -354 0
40 -354 0
-41 -354 0
46 -354 0
-51 -354 0
-52 -354 0
56 -354 0
58 -354 0
59 -354 0
62 -354 0
-64 -354 0
65 -354 0
66 -354 0
-67 -354 0
-76 -354 0
81 -354 0
-83 -354 0
-85 -354 0
-89 -354 0
90 -354 0
-94 -354 0
95 -354 0
96 -354 0
-97 -354 0
101 -354 0
103 -354 0
104 -354 0
106 -354 0
-109 -354 0
114 -354 0
117 -354 0
123 -354 0
126 -354 0
129 -354 0
-135 -354 0
-136 -354 0
142 -354 0
-143 -354 0
-147 -354 0
-149 -354 0
151 -354 0
157 -354 0
158 -354 0
160 -354 0
162 -354 0
164 -354 0
167 -354 0
170 -354 0
-171 -354 0
180 -354 0
-187 -354 0
-190 -354 0
192 -354 0
197 -354 0
199 -354 0
200 -354 0
207 -354 0
-208 -354 0
209 -354 0
210 -354 0
-215 -354 0
-217 -354 0
-218 -354 0
-221 -354 0
-222 -354 0
-232 -354 0
-233 -354 0
-235 -354 0
237 -354 0
-239 -354 0
241 -354 0
247 -354 0
249 -354 0
250 -354 0
355 -358 0
278 -358 0
279 -358 0
356 -358 0
290 -358 0
357 -358 0
272 -358 0
345 -359 0
349 -359 0
353 -359 0
354 -359 0
358 -359 0
359 -360 0
-115 -360 0
12 -361 0
-42 -361 0
-44 -361 0
72 -361 0
-79 -361 0
-84 -361 0
-112 -361 0
-168 -361 0
-211 -361 0
245 -361 0
360 -362 0
361 -362 0
362 -363 0
18 -363 0
12 -364 0
17 -364 0
-19 -364 0
24 -364 0
28 -364 0
30 -364 0
31 -364 0
-35 -364 0
36 -364 0
37 -364 0
38 -364 0
40 -364 0
-41 -364 0
46 -364 0
-51 -364 0
-52 -364 0
56 -364 0
58 -364 0
59 -364 0
-64 -364 0
66 -364 0
-67 -364 0
-76 -364 0
81 -364 0
-85 -364 0
90 -364 0
96 -364 0
-97 -364 0
101 -364 0
103 -364 0
104 -364 0
106 -364 0
-109 -364 0
114 -364 0
-115 -364 0
117 -364 0
123 -364 0
-135 -364 0
142 -364 0
-143 -364 0
-149 -364 0
157 -364 0
158 -364 0
160 -364 0
162 -364 0
164 -364 0
167 -364 0
170 -364 0
180 -364 0
-187 -364 0
-190 -364 0
192 -364 0
197 -364 0
199 -364 0
-208 -364 0
210 -364 0
-215 -364 0
-217 -364 0
-218 -364 0
-221 -364 0
-222 -364 0
-232 -364 0
-235 -364 0
237 -364 0
-239 -364 0
241 -364 0
249 -364 0
365 -366 0
278 -366 0
279 -366 0
357 -366 0
355 -366 0
356 -366 0
290 -366 0
272 -366 0
345 -367 0
349 -367 0
353 -367 0
364 -367 0
366 -367 0
367 -368 0
7 -369 0
-33 -369 0
-94 -369 0
200 -369 0
368 -370 0
369 -370 0
370 -371 0
95 -371 0
-3 -372 0
6 -372 0
10 -372 0
-42 -372 0
-44 -372 0
62 -372 0
65 -372 0
72 -372 0
-79 -372 0
-83 -372 0
-84 -372 0
-89 -372 0
-112 -372 0
126 -372 0
129 -372 0
-136 -372 0
151 -372 0
-168 -372 0
-171 -372 0
207 -372 0
209 -372 0
-211 -372 0
-233 -372 0
245 -372 0
247 -372 0
250 -372 0
371 -373 0
372 -373 0
373 -374 0
-18 -374 0
363 374 -375 0
8 -376 0
-9 -376 0
-102 -376 0
-108 -376 0
137 -376 0
-203 -376 0
375 -377 0
376 -377 0
377 -378 0
13 -378 0
84 -379 0
81 -379 0
380 -381 0
-81 -381 0
379 381 -382 0
-215 -383 0
56 -383 0
384 -385 0
-56 -385 0
383 385 -386 0
-97 -387 0
-190 -387 0
386 -388 0
340 -388 0
387 -388 0
388 -389 0
31 -389 0
78 -390 0
-216 -390 0
390 -391 0
190 -391 0
340 -392 0
-190 -392 0
391 392 -393 0
394 -395 0
244 -395 0
97 -396 0
-244 -396 0
395 396 -397 0
56 -398 0
-215 -398 0
393 -399 0
397 -399 0
398 -399 0
399 -400 0
-31 -400 0
389 400 -401 0
382 -402 0
401 -402 0
402 -405 0
403 -405 0
404 -405 0
405 -406 0
103 -406 0
-97 -407 0
407 -408 0
31 -408 0
397 -409 0
-31 -409 0
408 409 -410 0
410 -411 0
-215 -411 0
411 -412 0
56 -412 0
31 -413 0
-97 -413 0
413 -414 0
384 -414 0
414 -415 0
-56 -415 0
412 415 -416 0
-24 -417 0
-81 -417 0
192 -417 0
393 -418 0
416 -418 0
417 -418 0
380 -418 0
418 -419 0
-103 -419 0
406 419 -420 0
420 -421 0
-36 -421 0
421 -422 0
46 -422 0
-36 -423 0
192 -423 0
424 -425 0
-192 -425 0
423 425 -426 0
382 -427 0
426 -427 0
340 -427 0
-190 -427 0
427 -428 0
103 -428 0
-36 -429 0
-81 -429 0
192 -429 0
393 -430 0
429 -430 0
380 -430 0
430 -431 0
-103 -431 0
428 431 -432 0
-24 -433 0
31 -433 0
-56 -433 0
-97 -433 0
432 -434 0
433 -434 0
384 -434 0
434 -435 0
-46 -435 0
422 435 -436 0
437 -438 0
42 -438 0
67 -439 0
-42 -439 0
438 439 -440 0
436 -441 0
440 -441 0
441 -442 0
41 -442 0
24 -443 0
-36 -443 0
46 -443 0
103 -443 0
382 -444 0
401 -444 0
443 -444 0
403 -444 0
444 -446 0
445 -446 0
437 -446 0
446 -447 0
-41 -447 0
442 447 -448 0
279 -449 0
65 -449 0
77 -450 0
-65 -450 0
449 450 -451 0
203 -452 0
9 -452 0
453 -454 0
-9 -454 0
452 454 -455 0
455 -456 0
247 -456 0
-9 -457 0
-203 -457 0
457 -458 0
-247 -458 0
456 458 -459 0
-28 -460 0
38 -460 0
-117 -460 0
135 -460 0
-142 -460 0
-143 -460 0
170 -460 0
-186 -460 0
451 -462 0
459 -462 0
460 -462 0
461 -462 0
462 -463 0
237 -463 0
65 -464 0
203 -464 0
279 -466 0
465 -466 0
464 -467 0
466 -467 0
467 -468 0
117 -468 0
451 -469 0
459 -469 0
469 -470 0
-117 -470 0
468 470 -471 0
28 -472 0
38 -472 0
-106 -472 0
-135 -472 0
-186 -472 0
471 -474 0
472 -474 0
473 -474 0
474 -475 0
142 -475 0
28 -476 0
-106 -476 0
-135 -476 0
476 -477 0
186 -477 0
-106 -478 0
-135 -478 0
478 -479 0
28 -479 0
461 -481 0
480 -481 0
481 -482 0
-28 -482 0
479 482 -483 0
483 -484 0
-186 -484 0
477 484 -485 0
485 -486 0
170 -486 0
28 -487 0
-106 -487 0
487 -488 0
186 -488 0
-106 -489 0
28 -489 0
461 -490 0
-28 -490 0
489 490 -491 0
491 -492 0
-186 -492 0
488 492 -493 0
493 -494 0
-135 -494 0
494 -495 0
-170 -495 0
486 495 -496 0
496 -497 0
451 -497 0
459 -497 0
-117 -497 0
497 -499 0
498 -499 0
499 -500 0
-142 -500 0
475 500 -501 0
501 -503 0
502 -503 0
503 -504 0
-237 -504 0
463 504 -505 0
-6 -506 0
-7 -506 0
-10 -506 0
-12 -506 0
-17 -506 0
19 -506 0
-23 -506 0
-30 -506 0
33 -506 0
-37 -506 0
51 -506 0
-52 -506 0
-57 -506 0
-58 -506 0
59 -506 0
64 -506 0
-66 -506 0
71 -506 0
-72 -506 0
-75 -506 0
-76 -506 0
85 -506 0
89 -506 0
94 -506 0
-96 -506 0
-101 -506 0
102 -506 0
-104 -506 0
112 -506 0
-114 -506 0
123 -506 0
-126 -506 0
136 -506 0
-137 -506 0
149 -506 0
-157 -506 0
-158 -506 0
-160 -506 0
-162 -506 0
-165 -506 0
-167 -506 0
-168 -506 0
171 -506 0
-179 -506 0
-184 -506 0
187 -506 0
195 -506 0
-197 -506 0
-199 -506 0
-200 -506 0
-207 -506 0
208 -506 0
-210 -506 0
217 -506 0
221 -506 0
-222 -506 0
233 -506 0
235 -506 0
-241 -506 0
245 -506 0
-250 -506 0
507 -510 0
508 -510 0
509 -510 0
448 -511 0
505 -511 0
506 -511 0
510 -511 0
511 -512 0
-95 -512 0
-130 -513 0
-164 -513 0
512 -514 0
513 -514 0
514 -515 0
109 -515 0
515 -517 0
516 -517 0
517 -518 0
3 -519 0
8 -519 0
-40 -519 0
-44 -519 0
-62 -519 0
74 -519 0
79 -519 0
83 -519 0
-129 -519 0
-147 -519 0
-151 -519 0
-180 -519 0
211 -519 0
218 -519 0
232 -519 0
239 -519 0
-242 -519 0
518 -520 0
519 -520 0
520 -521 0
-90 -521 0
521 -522 0
115 -522 0
108 -523 0
522 -524 0
523 -524 0
524 -525 0
-13 -525 0
378 525 -526 0
526 -527 0
527 -529 0
528 -529 0
529 -530 0
530 -532 0
531 -532 0
532 -533 0
533 -534 0
534 -535 0
535 -536 0
536 -537 0
537 -538 0
538 -540 0
539 -540 0
540 -541 0
541 -542 0
144 -542 0
33 -543 0
-168 -543 0
245 -543 0
543 -544 0
8 -544 0
-245 -545 0
168 -545 0
546 -547 0
-168 -547 0
545 547 -548 0
548 -549 0
33 -549 0
168 -550 0
-245 -550 0
550 -551 0
-33 -551 0
549 551 -552 0
552 -553 0
-8 -553 0
544 553 -554 0
-36 -555 0
46 -555 0
554 -556 0
555 -556 0
404 -556 0
556 -557 0
123 -557 0
-36 -558 0
404 -558 0
558 -559 0
46 -559 0
-24 -560 0
424 -560 0
560 -561 0
-46 -561 0
559 561 -562 0
-8 -563 0
168 -563 0
-245 -563 0
562 -565 0
563 -565 0
564 -565 0
565 -566 0
-123 -566 0
557 566 -567 0
42 -568 0
-44 -568 0
509 -569 0
251 -569 0
567 -570 0
568 -570 0
569 -570 0
570 -571 0
41 -571 0
509 -572 0
251 -572 0
-44 -573 0
572 -573 0
573 -574 0
42 -574 0
-59 -575 0
-209 -575 0
575 -576 0
44 -576 0
251 -577 0
509 -577 0
577 -578 0
-44 -578 0
576 578 -579 0
579 -580 0
-42 -580 0
574 580 -581 0
24 -582 0
-36 -582 0
46 -582 0
123 -582 0
581 -583 0
554 -583 0
582 -583 0
583 -584 0
-41 -584 0
571 584 -585 0
-31 -586 0
56 -586 0
78 -586 0
-215 -586 0
-216 -586 0
585 -587 0
397 -587 0
586 -587 0
587 -588 0
190 -588 0
585 -589 0
410 -589 0
-215 -589 0
589 -590 0
56 -590 0
562 -591 0
41 -591 0
24 -592 0
-36 -592 0
46 -592 0
592 -593 0
-41 -593 0
591 593 -594 0
251 -595 0
509 -595 0
594 -596 0
-44 -596 0
595 -596 0
596 -597 0
42 -597 0
24 -598 0
-36 -598 0
-41 -598 0
46 -598 0
579 -599 0
598 -599 0
599 -600 0
-42 -600 0
597 600 -601 0
601 -602 0
554 -602 0
602 -603 0
123 -603 0
-8 -604 0
41 -604 0
42 -604 0
-44 -604 0
168 -604 0
-245 -604 0
251 -605 0
509 -605 0
564 -605 0
562 -606 0
604 -606 0
605 -606 0
606 -607 0
-123 -607 0
603 607 -608 0
608 -609 0
413 -609 0
609 -610 0
384 -610 0
610 -611 0
-56 -611 0
590 611 -612 0
612 -613 0
340 -613 0
613 -614 0
-190 -614 0
588 614 -615 0
28 -616 0
38 -616 0
-76 -616 0
135 -616 0
-143 -616 0
170 -616 0
616 -617 0
237 -617 0
480 -618 0
170 -618 0
-135 -619 0
-170 -619 0
618 619 -620 0
143 -622 0
621 -622 0
622 -623 0
76 -623 0
28 -624 0
502 -624 0
624 -625 0
-76 -625 0
623 625 -626 0
620 -627 0
626 -627 0
627 -628 0
498 -628 0
628 -629 0
-237 -629 0
617 629 -630 0
-117 -631 0
-142 -631 0
451 -632 0
615 -632 0
630 -632 0
459 -632 0
631 -632 0
632 -633 0
186 -633 0
-76 -634 0
135 -634 0
-143 -634 0
170 -634 0
634 -635 0
237 -635 0
143 -636 0
76 -636 0
502 -637 0
-76 -637 0
636 637 -638 0
638 -639 0
620 -639 0
639 -640 0
-237 -640 0
635 640 -641 0
28 -642 0
38 -642 0
471 -643 0
641 -643 0
642 -643 0
643 -644 0
142 -644 0
38 -645 0
-76 -645 0
135 -645 0
-143 -645 0
170 -645 0
645 -646 0
237 -646 0
638 -647 0
620 -647 0
647 -648 0
498 -648 0
648 -649 0
-237 -649 0
646 649 -650 0
451 -651 0
650 -651 0
459 -651 0
-117 -651 0
651 -652 0
621 -652 0
652 -653 0
-142 -653 0
644 653 -654 0
24 -655 0
-41 -655 0
-42 -655 0
-59 -655 0
-209 -655 0
655 -656 0
44 -656 0
42 -657 0
404 -657 0
657 -658 0
41 -658 0
24 -659 0
445 -659 0
659 -660 0
-41 -660 0
658 660 -661 0
661 -662 0
251 -662 0
509 -662 0
662 -663 0
-44 -663 0
656 663 -664 0
33 -665 0
123 -665 0
-168 -665 0
245 -665 0
665 -666 0
8 -666 0
-245 -668 0
667 -668 0
668 -669 0
168 -669 0
123 -670 0
546 -670 0
670 -671 0
-168 -671 0
669 671 -672 0
672 -673 0
33 -673 0
550 -674 0
667 -674 0
674 -675 0
-33 -675 0
673 675 -676 0
676 -677 0
-8 -677 0
666 677 -678 0
664 -679 0
678 -679 0
-36 -679 0
679 -680 0
46 -680 0
-8 -681 0
-24 -681 0
41 -681 0
42 -681 0
-44 -681 0
-123 -681 0
168 -681 0
-245 -681 0
251 -682 0
509 -682 0
564 -682 0
681 -683 0
682 -683 0
683 -684 0
424 -684 0
684 -685 0
-46 -685 0
680 685 -686 0
686 -687 0
397 -687 0
586 -687 0
687 -688 0
190 -688 0
251 -689 0
509 -689 0
568 -690 0
689 -690 0
690 -691 0
41 -691 0
581 -692 0
-41 -692 0
691 692 -693 0
416 -694 0
693 -694 0
555 -694 0
667 -694 0
694 -695 0
24 -695 0
555 -696 0
123 -696 0
-36 -697 0
46 -697 0
424 -698 0
-46 -698 0
697 698 -699 0
699 -700 0
-123 -700 0
696 700 -701 0
701 -702 0
410 -702 0
-215 -702 0
702 -703 0
56 -703 0
699 -704 0
413 -704 0
704 -705 0
384 -705 0
667 -705 0
705 -706 0
-56 -706 0
703 706 -707 0
41 -708 0
42 -708 0
-44 -708 0
251 -709 0
509 -709 0
707 -710 0
708 -710 0
709 -710 0
710 -711 0
-24 -711 0
695 711 -712 0
-8 -713 0
-245 -713 0
712 -714 0
713 -714 0
714 -715 0
564 -715 0
715 -716 0
168 -716 0
416 -717 0
693 -717 0
555 -717 0
717 -718 0
24 -718 0
-36 -719 0
46 -719 0
-215 -719 0
410 -720 0
719 -720 0
720 -721 0
56 -721 0
699 -722 0
413 -722 0
722 -723 0
384 -723 0
723 -724 0
-56 -724 0
721 724 -725 0
251 -726 0
509 -726 0
725 -727 0
708 -727 0
726 -727 0
727 -728 0
-24 -728 0
718 728 -729 0
245 -730 0
8 -730 0
546 -731 0
-8 -731 0
730 731 -732 0
33 -733 0
123 -733 0
729 -734 0
732 -734 0
733 -734 0
734 -735 0
-168 -735 0
716 735 -736 0
736 -737 0
340 -737 0
737 -738 0
-190 -738 0
688 738 -739 0
654 -740 0
739 -740 0
740 -741 0
-186 -741 0
633 741 -742 0
-6 -743 0
-7 -743 0
-12 -743 0
-17 -743 0
19 -743 0
-23 -743 0
-30 -743 0
-37 -743 0
51 -743 0
52 -743 0
-57 -743 0
-62 -743 0
64 -743 0
-66 -743 0
-67 -743 0
71 -743 0
-72 -743 0
74 -743 0
79 -743 0
89 -743 0
94 -743 0
-96 -743 0
-101 -743 0
102 -743 0
103 -743 0
-104 -743 0
-106 -743 0
109 -743 0
112 -743 0
-114 -743 0
-126 -743 0
-129 -743 0
-130 -743 0
136 -743 0
-137 -743 0
-151 -743 0
-157 -743 0
-158 -743 0
-160 -743 0
-162 -743 0
-164 -743 0
-165 -743 0
-167 -743 0
171 -743 0
-184 -743 0
187 -743 0
-192 -743 0
-197 -743 0
-199 -743 0
-200 -743 0
208 -743 0
-210 -743 0
211 -743 0
217 -743 0
221 -743 0
-222 -743 0
232 -743 0
233 -743 0
235 -743 0
-241 -743 0
-242 -743 0
-250 -743 0
507 -744 0
508 -744 0
742 -745 0
382 -745 0
743 -745 0
744 -745 0
745 -746 0
-90 -746 0
3 -747 0
-40 -747 0
-58 -747 0
83 -747 0
149 -747 0
-179 -747 0
239 -747 0
746 -748 0
747 -748 0
748 -749 0
115 -749 0
-10 -750 0
-75 -750 0
-207 -750 0
218 -750 0
749 -751 0
750 -751 0
751 -752 0
238 -752 0
28 -753 0
-106 -753 0
-186 -753 0
471 -755 0
753 -755 0
754 -755 0
755 -756 0
142 -756 0
28 -757 0
186 -757 0
621 -758 0
-186 -758 0
757 758 -759 0
759 -760 0
-106 -760 0
760 -761 0
52 -761 0
493 -762 0
-52 -762 0
761 762 -763 0
763 -764 0
451 -764 0
459 -764 0
-117 -764 0
764 -765 0
-142 -765 0
756 765 -766 0
38 -767 0
135 -767 0
-143 -767 0
170 -767 0
766 -768 0
767 -768 0
768 -769 0
237 -769 0
28 -770 0
38 -770 0
-106 -770 0
-186 -770 0
471 -771 0
770 -771 0
754 -771 0
771 -772 0
142 -772 0
763 -773 0
451 -773 0
459 -773 0
-117 -773 0
773 -774 0
498 -774 0
774 -775 0
-142 -775 0
772 775 -776 0
776 -777 0
620 -777 0
777 -778 0
502 -778 0
778 -779 0
-237 -779 0
769 779 -780 0
340 -781 0
387 -781 0
781 -782 0
31 -782 0
397 -783 0
393 -783 0
783 -784 0
-31 -784 0
782 784 -785 0
785 -786 0
661 -786 0
719 -786 0
786 -787 0
56 -787 0
562 -788 0
42 -788 0
788 -789 0
41 -789 0
592 -790 0
445 -790 0
790 -791 0
-41 -791 0
789 791 -792 0
31 -793 0
-97 -793 0
-190 -793 0
792 -794 0
340 -794 0
793 -794 0
794 -795 0
384 -795 0
795 -796 0
-56 -796 0
787 796 -797 0
3 -798 0
-6 -798 0
-7 -798 0
8 -798 0
-10 -798 0
-12 -798 0
-17 -798 0
19 -798 0
-23 -798 0
-30 -798 0
33 -798 0
-37 -798 0
-40 -798 0
-44 -798 0
51 -798 0
-57 -798 0
-62 -798 0
64 -798 0
-66 -798 0
-67 -798 0
71 -798 0
-72 -798 0
74 -798 0
-75 -798 0
-76 -798 0
79 -798 0
83 -798 0
89 -798 0
94 -798 0
-96 -798 0
-101 -798 0
102 -798 0
103 -798 0
-104 -798 0
109 -798 0
112 -798 0
-114 -798 0
123 -798 0
-126 -798 0
-129 -798 0
-130 -798 0
136 -798 0
-137 -798 0
-151 -798 0
-157 -798 0
-158 -798 0
-160 -798 0
-162 -798 0
-164 -798 0
-165 -798 0
-167 -798 0
-168 -798 0
171 -798 0
-179 -798 0
-184 -798 0
187 -798 0
-192 -798 0
-197 -798 0
-199 -798 0
-200 -798 0
-207 -798 0
208 -798 0
-210 -798 0
211 -798 0
217 -798 0
218 -798 0
221 -798 0
-222 -798 0
232 -798 0
233 -798 0
235 -798 0
239 -798 0
-241 -798 0
-242 -798 0
245 -798 0
-250 -798 0
507 -799 0
508 -799 0
509 -799 0
251 -799 0
780 -800 0
797 -800 0
382 -800 0
798 -800 0
799 -800 0
800 -801 0
-90 -801 0
-58 -802 0
149 -802 0
801 -803 0
802 -803 0
803 -804 0
115 -804 0
804 -805 0
805 -806 0
-238 -806 0
752 806 -807 0
807 -809 0
808 -809 0
809 -810 0
810 -811 0
811 -812 0
-147 -813 0
812 -814 0
813 -814 0
814 -815 0
-13 -816 0
85 -816 0
-95 -816 0
108 -816 0
-180 -816 0
195 -816 0
815 -817 0
816 -817 0
817 -818 0
818 -819 0
819 -820 0
820 -821 0
821 -822 0
822 -823 0
-144 -823 0
824 -825 0
-181 -828 0
829 -830 0
-2 0
-5 0
-14 0
-16 0
-20 0
21 0
26 0
-27 0
-34 0
39 0
43 0
-48 0
-54 0
-60 0
-61 0
69 0
-70 0
73 0
80 0
-82 0
-87 0
88 0
-91 0
-92 0
-100 0
107 0
113 0
116 0
-118 0
119 0
-121 0
-122 0
124 0
-128 0
-132 0
134 0
138 0
140 0
146 0
-148 0
-152 0
-155 0
-156 0
159 0
161 0
-173 0
175 0
-177 0
-178 0
-182 0
-183 0
-185 0
188 0
189 0
-194 0
196 0
198 0
-202 0
205 0
212 0
214 0
-219 0
220 0
-224 0
-225 0
227 0
228 0
229 0
231 0
234 0
-236 0
240 0
243 0
-246 0
-248 0
-119 830 0
-154 827 0
-826 827 0
-824 825 0
-822 823 0
-821 822 0
-820 821 0
-817 818 0
-813 814 0
-811 812 0
-807 809 0
-805 806 0
-804 805 0
-802 803 0
-800 801 0
-797 800 0
-795 796 0
-792 794 0
-791 792 0
-790 791 0
-788 789 0
-785 786 0
-784 785 0
-780 800 0
-779 780 0
-777 778 0
-775 776 0
-770 771 0
-763 764 773 0
-759 760 0
-757 759 0
-756 766 0
-755 756 0
-753 755 0
-238 752 0
-745 746 0
-751 752 0
-744 745 0
-52 743 754 761 0
-740 741 0
-738 739 0
-736 737 0
-731 732 0
-729 734 0
-728 729 0
-727 728 0
-726 727 0
-724 725 0
-721 725 0
-720 721 0
-718 729 0
-717 718 0
-716 736 0
-715 716 0
-714 715 0
-711 712 0
-703 707 0
-701 702 0
-698 699 0
-697 699 0
-692 693 0
-691 693 0
-688 739 0
-686 687 0
-685 686 0
-682 683 0
-678 679 0
-675 676 0
-674 675 0
-673 676 0
-670 671 0
-668 669 0
-666 678 0
-664 679 0
-660 661 0
-659 660 0
-655 656 0
-649 650 0
-754 755 771 0
-648 649 0
-647 648 0
-645 646 0
-644 654 0
-643 644 0
-637 638 0
-799 800 0
-636 638 0
-634 635 0
-631 632 0
-749 751 0
-630 632 0
-746 748 0
-628 629 0
-627 628 0
-626 627 0
-742 745 0
-625 626 0
-624 625 0
-623 626 0
-622 623 0
-621 622 652 758 0
-620 627 639 647 777 0
-618 620 0
-617 630 0
-818 819 0
-613 614 0
-612 613 0
-605 606 0
-602 603 0
-599 600 0
-598 599 0
-597 601 0
-596 597 0
-593 594 0
-590 612 0
-707 710 0
-589 590 0
-588 615 0
-587 588 0
-651 652 0
-586 587 687 0
-706 707 0
-585 587 589 0
-582 583 0
-580 581 0
-577 578 0
-681 683 0
-572 573 0
-568 570 690 0
123 566 607 667 681 700 0
-565 566 0
-564 565 605 682 715 0
-561 562 0
-560 561 0
-559 562 0
-556 557 0
-555 556 694 696 717 0
-552 553 0
-549 552 0
-548 549 0
-547 548 0
-546 547 670 731 0
-168 545 550 563 604 669 681 716 0
-544 554 0
-543 544 0
-737 738 0
-541 542 0
-600 601 0
63 826 0
-536 537 0
-533 534 0
-539 540 0
-583 584 0
-632 633 0
-528 529 0
-527 529 0
-525 526 0
-524 525 0
-594 596 0
-523 524 0
-522 524 0
-115 522 749 804 0
90 521 746 801 0
-519 520 0
-239 519 747 798 0
-211 519 743 798 0
180 519 816 0
-776 777 0
151 519 743 798 0
-79 519 743 798 0
62 519 743 798 0
40 519 747 798 0
-518 520 0
-517 518 0
-750 751 0
-516 517 0
-515 517 0
-166 825 0
-514 515 0
-511 512 0
-510 511 0
-509 510 569 572 577 595 605 662 682 689 709 726 799 0
-35 508 0
249 507 0
-506 511 0
250 506 743 798 0
-702 703 0
241 506 743 798 0
210 506 743 798 0
-208 506 743 798 0
200 506 743 798 0
197 506 743 798 0
167 506 743 798 0
-578 579 0
160 506 743 798 0
158 506 743 798 0
-793 794 0
157 506 743 798 0
-771 772 0
-149 506 747 802 0
-633 742 0
137 506 743 798 0
126 506 743 798 0
-112 506 743 798 0
-512 514 0
104 506 743 798 0
-787 797 0
-713 714 0
101 506 743 798 0
96 506 743 798 0
72 506 743 798 0
-722 723 0
58 506 747 802 0
-33 506 543 549 564 665 673 733 798 0
-772 776 0
7 506 743 798 0
-505 511 0
237 504 629 640 649 779 0
-502 503 624 637 778 0
-680 686 0
-576 579 0
-501 503 0
-499 500 0
-496 497 0
-494 495 0
-492 493 0
-490 491 0
-221 506 743 798 0
-489 491 0
-487 488 0
-486 496 0
-665 666 0
-484 485 0
-483 484 0
-661 662 786 0
-482 483 0
-480 481 618 0
-477 485 0
-476 477 0
-573 574 0
-475 501 0
144 823 0
-474 475 0
-473 474 0
-520 521 0
170 473 495 619 0
-472 474 0
-761 763 0
-654 740 0
-470 471 0
-465 466 0
-463 505 0
-462 463 0
-735 736 0
-540 541 0
-460 462 0
-760 761 0
-653 654 0
-468 471 0
142 460 500 631 653 765 775 0
-135 460 480 616 634 645 767 0
-459 462 469 497 632 651 764 773 0
-458 459 0
247 458 0
-641 643 0
-456 459 0
-635 641 0
-455 456 0
-639 640 0
-454 455 0
-507 510 744 799 0
-452 455 0
-638 639 647 0
-203 452 453 464 0
13 525 816 0
-451 462 469 497 632 651 764 773 0
-450 451 0
65 450 0
-449 451 0
-538 540 0
-448 511 0
-537 538 0
-447 448 0
-730 732 0
-445 446 659 790 0
-444 446 0
-441 442 0
-440 441 0
-439 440 0
-437 438 446 0
-327 328 0
232 297 354 364 0
-396 397 0
-684 685 0
-575 576 0
-500 501 0
-495 496 0
-223 297 0
-819 820 0
-615 632 0
-42 308 438 445 568 574 597 604 657 681 708 788 0
215 297 354 364 383 384 398 411 586 589 702 719 0
-37 354 364 0
-466 467 0
209 297 509 575 655 0
-117 297 354 364 468 0
201 297 0
-109 305 515 743 798 0
106 297 461 472 476 478 487 489 743 753 760 770 0
-197 297 354 364 0
-187 297 506 743 798 0
94 354 369 0
-443 444 0
-550 551 674 0
-479 483 0
-86 297 0
-803 804 0
-167 297 354 364 0
74 344 0
163 297 0
-743 745 0
-71 297 357 506 743 798 0
-748 749 0
-629 630 0
68 297 0
-364 367 0
-786 787 0
-158 297 354 364 0
-157 297 354 364 0
-153 297 0
150 297 0
-768 769 0
-281 282 0
149 297 354 364 0
-13 297 378 0
-387 388 781 0
-428 432 0
-143 297 502 622 636 0
139 297 0
-611 612 0
-442 448 0
130 297 356 513 743 798 0
-277 282 0
-734 735 0
-126 297 354 372 0
-553 554 0
218 354 364 0
216 297 335 339 390 586 0
-461 462 481 490 0
41 354 364 447 584 593 598 655 660 692 791 0
-265 267 0
115 297 360 364 0
-571 585 0
-111 297 0
203 297 376 453 457 0
-210 297 354 364 0
-6 297 354 372 0
207 297 506 750 798 0
-104 297 354 364 0
-346 347 0
30 506 743 798 0
206 297 0
-114 354 364 0
195 276 278 0
204 297 0
-503 504 0
-101 297 354 364 0
-816 817 0
193 285 0
-671 672 0
-386 388 0
-190 391 588 688 0
-297 302 0
187 354 364 0
-191 297 0
-340 341 388 392 427 613 737 781 794 0
186 297 352 460 472 484 492 741 753 758 770 0
-562 565 591 606 788 0
-94 297 506 743 798 0
-330 332 336 338 0
-435 436 0
79 297 361 372 0
-808 809 0
-325 326 0
-394 395 0
-781 782 0
-557 567 0
-391 393 0
-89 506 743 798 0
-284 302 0
-608 609 0
-299 301 0
-504 505 0
162 297 506 743 798 0
-283 284 0
-610 611 0
-186 351 477 488 633 757 0
-269 302 0
-591 594 0
-657 658 0
-84 379 380 0
-279 280 358 366 449 466 0
-64 277 506 743 798 0
-312 313 0
-798 800 0
-77 279 450 0
169 297 0
-357 358 366 0
-381 382 0
-83 297 519 747 798 0
-276 277 0
-709 710 0
-45 297 0
29 297 0
-272 273 280 358 366 0
-145 289 0
36 297 421 423 424 429 443 555 558 582 592 598 679 697 719 0
-9 452 465 0
211 308 361 372 0
-291 292 0
133 297 0
-180 297 354 364 0
-434 435 0
76 271 354 364 506 616 625 634 637 645 798 0
-4 297 0
-767 768 0
77 270 276 279 0
-616 617 0
190 297 354 364 387 392 427 614 738 793 0
-796 797 0
1 297 0
-275 284 0
-55 297 0
-268 269 0
-85 297 506 816 0
-142 297 354 364 475 644 756 772 0
-260 261 343 0
-658 661 0
192 258 264 403 425 743 798 0
-12 361 364 0
-36 354 364 424 0
-222 254 0
129 297 519 743 798 0
-329 333 0
33 297 354 369 551 564 675 0
-436 441 0
-789 792 0
-160 297 354 364 0
-830 831 0
-508 510 744 799 0
-258 259 0
120 297 0
-213 298 0
-38 354 364 460 472 498 616 642 645 767 770 0
-253 259 0
52 297 354 364 506 754 762 0
12 297 506 743 798 0
-532 533 0
-59 251 255 266 354 364 506 0
239 297 354 364 0
-257 258 0
-747 748 0
-259 261 0
50 297 0
-554 556 583 602 0
-285 286 0
-300 301 0
-619 620 0
-192 253 263 354 364 403 417 423 429 0
99 308 0
-672 673 0
-341 342 0
-690 691 0
-233 297 506 743 798 0
-273 274 0
-438 440 0
-251 252 569 572 577 595 605 662 682 689 709 726 799 0
66 297 506 743 798 0
18 374 0
-217 297 506 743 798 0
-282 283 0
135 297 354 364 472 476 478 480 494 619 0
67 354 364 437 743 798 0
19 354 364 0
-262 269 0
-581 583 692 0
-171 297 506 743 798 0
78 330 0
59 251 256 575 655 0
112 308 361 372 0
-410 411 589 702 720 0
-446 447 0
-131 299 0
-28 297 354 364 472 476 479 487 489 616 621 624 642 753 757 770 0
172 300 0
-569 570 0
-464 467 0
-271 273 280 0
-235 297 506 743 798 0
-352 353 0
-274 275 0
-705 706 0
-424 425 560 684 698 0
-558 559 0
-90 310 354 364 0
-453 454 0
-136 297 506 743 798 0
-806 807 0
-513 514 0
-301 302 0
84 297 361 372 380 0
-280 281 0
-609 610 0
37 297 506 743 798 0
-719 720 786 0
-242 260 266 0
168 297 361 372 506 543 547 665 671 735 798 0
-708 710 727 0
-237 297 354 364 463 617 635 646 769 0
-417 418 0
-286 288 0
-825 826 0
-67 297 437 439 0
-19 297 506 743 798 0
-333 334 0
89 297 354 372 0
-425 426 0
-469 470 0
-141 297 0
-603 608 0
3 295 354 372 0
222 252 254 256 263 354 364 506 743 798 0
208 297 354 364 0
-261 262 0
-288 302 0
221 297 354 364 0
-614 615 0
-129 354 372 0
-76 271 276 623 636 0
-263 265 0
-264 265 0
-812 814 0
114 297 506 743 798 0
-32 312 0
-723 724 0
-318 319 0
-762 763 0
-471 474 643 755 771 0
-270 274 0
-656 664 0
-147 318 365 0
110 268 0
-542 824 0
-195 270 278 506 816 0
-679 680 0
-498 499 628 648 774 0
-296 302 0
-334 345 0
83 354 372 0
64 270 281 354 364 0
-74 297 334 519 743 798 0
166 320 0
-266 267 0
-125 297 0
217 354 364 0
42 361 372 439 445 580 600 655 0
-267 268 0
-57 289 290 0
-563 565 0
-287 288 0
199 506 743 798 0
-252 253 0
23 297 355 506 743 798 0
-289 292 0
164 297 513 743 798 0
-433 434 0
-25 297 0
-72 308 361 372 0
-53 297 0
-676 677 0
-95 297 354 371 0
-294 295 0
-404 405 556 558 657 0
-290 291 358 366 0
-739 740 0
136 354 372 0
-566 567 0
-292 302 0
-342 343 0
-388 389 0
51 294 354 364 0
-343 344 0
-10 297 354 372 0
-732 734 0
127 297 0
-814 815 0
-176 275 0
-7 297 354 369 0
-376 377 0
-827 828 0
-642 643 0
-254 255 264 0
102 308 376 0
-353 359 367 0
8 297 553 563 604 677 681 713 731 0
-765 766 0
-810 811 0
-51 293 294 506 743 798 0
-15 297 0
233 354 372 0
117 460 470 497 631 651 764 773 0
-40 297 354 364 0
-534 535 0
-215 384 0
-78 297 330 339 390 586 0
-699 700 704 722 0
-741 742 0
-65 297 354 372 449 464 0
-207 354 372 0
-31 297 354 364 389 408 413 433 782 793 0
46 435 561 685 698 0
242 260 329 519 743 798 0
24 297 404 417 433 560 681 711 728 0
-347 349 0
-164 354 364 0
-255 257 0
71 357 0
-725 727 0
35 297 354 364 508 0
-44 297 576 656 0
-46 297 354 364 422 443 555 559 582 592 598 680 697 719 0
-56 297 354 364 383 398 412 586 590 703 721 787 0
-58 297 354 364 0
-604 606 0
-758 759 0
-652 653 0
-81 354 364 379 0
-606 607 0
-62 297 354 372 0
-704 705 0
-420 421 0
-241 297 354 364 0
-574 581 0
-170 297 354 364 460 473 486 616 618 634 645 767 0
-314 315 0
-595 596 0
-47 297 347 506 743 798 0
-403 405 444 0
-710 711 0
-245 297 361 372 506 543 546 665 730 798 0
-249 297 354 364 507 0
-250 297 354 372 0
-298 301 0
17 308 506 743 798 0
-383 386 0
-98 311 0
-302 303 0
-567 570 0
-226 286 0
-293 296 0
-344 345 0
-526 527 0
-350 351 0
-304 305 0
-700 701 0
-49 306 0
-232 519 743 798 0
-306 307 0
-303 304 0
-400 401 0
-764 765 0
-545 548 0
-278 280 358 366 0
-165 272 0
-411 412 0
-307 309 0
-766 768 0
-216 329 335 338 0
-677 678 0
-96 308 354 364 0
-650 651 0
-308 309 0
-137 308 376 0
-218 308 519 750 798 0
-309 310 0
-402 405 0
-693 694 717 0
165 272 276 506 743 798 0
-310 311 0
-794 795 0
-689 690 0
-407 408 0
-311 313 0
-535 536 0
-184 331 337 0
108 308 376 0
-313 314 0
-531 532 0
-11 316 0
-774 775 0
-332 333 0
-773 774 0
10 506 750 798 0
174 297 0
-373 374 0
-66 354 364 0
-230 321 0
-321 322 0
-63 322 0
-592 593 790 0
245 545 546 550 563 604 668 681 713 0
-319 320 0
-375 377 0
-322 324 0
-41 308 442 571 591 604 658 681 691 708 789 0
-320 321 0
-365 366 0
-324 325 0
-478 479 0
-326 327 0
-493 494 762 0
154 327 0
-601 602 0
-256 257 0
-244 308 361 372 387 395 407 413 433 793 0
-423 426 0
-331 332 0
-778 779 0
-335 336 0
-488 493 0
-93 297 0
-336 337 0
-337 342 0
-151 297 354 372 0
-338 340 0
-339 340 0
-497 499 0
-295 296 0
-345 359 367 0
-179 346 348 0
-481 482 0
47 348 0
-348 349 0
-349 359 367 0
-640 641 0
-457 458 0
-75 350 0
-351 353 0
38 297 498 0
85 354 364 0
-529 530 0
-17 354 364 0
-200 297 354 369 0
-24 354 364 404 443 582 592 598 655 659 695 718 0
-368 370 0
-315 316 0
-3 293 519 747 798 0
-305 306 0
-401 402 444 0
-584 585 0
-521 522 0
-815 817 0
-712 714 0
-106 354 364 461 0
109 354 364 0
-646 650 0
31 400 409 586 784 0
-413 414 609 704 722 0
143 354 364 460 502 616 634 645 767 0
-421 422 0
-370 371 0
-662 663 0
-551 552 0
-579 580 599 0
-162 354 364 0
-809 810 0
171 354 372 0
-209 354 372 509 0
235 354 364 0
-663 664 0
-22 297 0
-354 359 0
-323 324 0
-355 358 366 0
-130 356 0
-467 468 0
-379 382 0
-356 358 366 0
-103 297 354 364 406 428 443 743 798 0
-359 360 0
-360 362 0
44 361 372 519 568 573 578 596 604 663 681 708 798 0
-667 668 674 694 705 0
-485 486 0
-429 430 0
-30 297 354 364 0
-199 297 354 364 0
-23 355 0
-361 362 0
-801 803 0
-694 695 0
105 297 0
-362 363 0
-317 319 0
-363 375 0
-366 367 0
-696 701 0
-405 406 0
-367 368 0
-108 523 816 0
-418 419 0
-369 370 0
-491 492 0
-398 399 0
-316 317 0
-371 373 0
-607 608 0
-123 297 354 364 506 557 582 603 665 667 670 696 733 798 0
-372 373 0
-374 375 0
-8 376 519 544 666 730 798 0
-377 378 0
-378 526 0
-380 381 418 430 0
81 297 381 417 429 0
-382 402 427 444 745 800 0
-358 359 0
-384 385 414 434 610 705 723 795 0
-733 734 0
56 385 415 433 611 706 724 796 0
-669 672 0
91 312 535 818 0
-385 386 0
-389 401 0
-769 780 0
-390 391 0
-783 784 0
-392 393 0
-782 785 0
95 512 816 0
-393 399 418 430 783 0
-97 394 396 0
-683 684 0
-570 571 0
-395 397 0
-695 712 0
244 396 0
-397 399 409 587 687 783 0
-399 400 0
-406 420 0
-687 688 0
-102 506 743 798 0
-408 410 0
103 419 431 0
-409 410 0
-412 416 0
-414 415 0
6 506 743 798 0
28 460 482 490 621 0
-415 416 0
-416 418 694 717 0
-752 807 0
-419 420 0
-530 532 0
-422 436 0
-426 427 0
-427 428 0
-247 297 354 372 456 464 0
-430 431 0
-431 432 0
57 290 506 743 798 0
-432 434 0
